NAME: dataset20.tsp
TYPE: TSP
COMMENT: 20 random locations
DIMENSION: 20
EDGE_WEIGHT_TYPE: EUC_2D
NODE_COORD_SECTION
1 4849.9601561047 50.4318682837
2 3986.9007189003 404.6908472778
3 2219.2559314635 2532.3984867069
4 2030.7794675595 4546.2597632393
5 747.1522705252 2993.6714270458
6 2241.6928688782 792.2542398247
7 2890.0245534353 1603.2500691881
8 1156.8253124870 4174.9006531018
9 1401.7255028768 3681.4421751167
10 2719.0958427790 3851.0986505366
11 4679.6520028156 403.0099307635
12 3100.3648222481 386.0757594502
13 3641.1187800061 2773.0646501167
14 2398.0436209256 654.9588634974
15 348.7010976153 1600.4715230803
16 4695.7377028649 2894.1533970957
17 873.7091955398 2096.8463389357
18 327.1870158406 3540.8669432966
19 3563.7216296793 288.7968841383
20 437.6512863043 1761.8082963136
EOF
